100
    1    37    37
    2    71    71
    3    53    53
    4    76    76
    5    75    75
    6    77    77
    7    72    72
    8     5     5
    9    65    65
   10    91    91
   11    19    19
   12    82    82
   13    54    54
   14    71    71
   15    57    57
   16    33    33
   17    26    26
   18    60    60
   19    67    67
   20    32    32
   21    57    57
   22    48    48
   23    68    68
   24    36    36
   25    53    53
   26    80    80
   27    17    17
   28    59    59
   29    94    94
   30    68    68
   31    14    14
   32    49    49
   33    58    58
   34    79    79
   35    93    93
   36    47    47
   37    38    38
   38    96    96
   39    15    15
   40    51    51
   41    70    70
   42    43    43
   43    45    45
   44    32    32
   45     5     5
   46    89    89
   47    32    32
   48    73    73
   49    38    38
   50    90    90
   51    21    21
   52    80    80
   53    35    35
   54    61    61
   55    65    65
   56    37    37
   57    83    83
   58    23    23
   59    16    16
   60    62    62
   61     3     3
   62    70    70
   63    29    29
   64    45    45
   65    77    77
   66    17    17
   67    98    98
   68   100   100
   69     1     1
   70     1     1
   71    10    10
   72    42    42
   73    29    29
   74    86    86
   75    14    14
   76    48    48
   77    21    21
   78     8     8
   79    56    56
   80    41    41
   81    76    76
   82    73    73
   83    95    95
   84    15    15
   85    31    31
   86    43    43
   87    43    43
   88    44    44
   89    60    60
   90     4     4
   91    56    56
   92    48    48
   93    79    79
   94    86    86
   95    55    55
   96    30    30
   97    88    88
   98    66    66
   99    33    33
  100    67    67
3420
